! wB97X-D3BJ 6-311+G** autoaux opt numfreq 

%scf
MaxIter 500
end

%maxcore 1000
%pal nprocs 8
end

%cpcm
smd true
SMDsolvent "WATER"
end

%freq
Increment 0.001
end

* xyzfile 0 1 input.xyz

